	Costo	Iter.	Tiempo
1	553,39	140	16,08
2	868,98	160	35,547
3	844,01	203	145,537
4	1078,83	126	227,871
5	1401,68	86	300,089
6	564,57	125	20,122
7	944,54	154	165,352
8	887,14	128	177,09
9	1277,38	7	312,371
10	1589,57	3	390,591
11	1278,63	229	300,14
12	842,64	138	93,157
13	1658,93	227	274,062
14	882,18	141	88,265
